% The Rogo problem from 2011-07-12
%
% 
rows = 8;
cols = 10;
max_steps = 16;
best = 27;
problem = array2d(1..rows, 1..cols, 
[
 %1 2 3 4 5 6 7,8,9,10
  8,W,3,B,4,4,B,8,W,8, % 1
  W,W,W,W,W,W,W,W,W,W, % 2
  8,W,B,W,4,W,W,B,W,8, % 3
  B,W,3,W,W,3,W,W,W,B, % 4
  B,W,W,W,5,W,W,4,W,B, % 5
  5,W,B,W,W,4,W,B,W,8, % 6
  W,W,W,W,W,W,W,W,W,W, % 7
  8,W,8,B,3,4,B,3,W,8, % 8
]);
